sing20130408.00
TTAA  58001 48698
99004 28018 07002 00052 27810 03501 92742 24024 32508
85479 19634 02503 70127 10256 33018 50585 05110 31014
40758 14531 23008 30970 29150 12013 25098 39556 10524
20246 52558 10036 15425 68357 11037 10659 77557 19507
88999
77999=
=
TTDD  5800/ 48698
11943 78750 22874 81159
21212 11980 21010 22950 25005 33935 15002 44922 07003
55911 30502 66901 32504 77874 30508=
